Log file: C:\Users\user\robust_bilevel_network_games\true_dro\S20_beta0p8_cov95\log_sioux_falls_20260417_1435299.txt
Started: 2026-04-17T14:35:45.299


======================================================================
INSTANCE: sioux_falls (S=20, β=0.8, ε̂=0.49, ε̃=0.49)
======================================================================
============================================================
Sioux-Falls Network Summary
============================================================
Number of nodes: 24
Number of arcs (incl. dummy): 77
Number of regular arcs: 76
Number of interdictable arcs: 66
Source node: s (1)
Sink node: t (24)
Node-incidence matrix N dimensions: (23, 77)

Sparsity Information:
  Arc-arc adjacency: 864 / 5776 pairs (85.0% sparse)
  Node-arc incidence: 148 / 1748 pairs (91.5% sparse)

First 15 arcs:
  Arc 1: ("10", "11") [Interdictable: ✓]
  Arc 2: ("10", "15") [Interdictable: ✓]
  Arc 3: ("10", "16") [Interdictable: ✓]
  Arc 4: ("10", "17") [Interdictable: ✓]
  Arc 5: ("10", "9") [Interdictable: ✓]
  Arc 6: ("11", "10") [Interdictable: ✓]
  Arc 7: ("11", "12") [Interdictable: ✓]
  Arc 8: ("11", "14") [Interdictable: ✓]
  Arc 9: ("11", "4") [Interdictable: ✓]
  Arc 10: ("12", "11") [Interdictable: ✓]
  Arc 11: ("12", "13") [Interdictable: ✓]
  Arc 12: ("12", "3") [Interdictable: ✓]
  Arc 13: ("13", "12") [Interdictable: ✓]
  Arc 14: ("13", "t") [Interdictable: ✗]
  Arc 15: ("14", "11") [Interdictable: ✓]
============================================================
  |A|=76, S=20, γ=2, w=1.9805, λU=2.0
  ε̂=0.49, ε̃=0.49

----------------------------------------
VI-only OMP diagnostic (no Benders cuts)
Set parameter Username
Set parameter LicenseID to value 2742039
Academic license - for non-commercial use only - expires 2026-11-20
Set parameter OutputFlag to value 1
Set parameter OutputFlag to value 1
Gurobi Optimizer version 13.0.0 build v13.0.0rc1 (win64 - Windows 10.0 (19045.2))

CPU model: AMD Ryzen 9 5900X 12-Core Processor, instruction set [SSE2|AVX|AVX2]
Thread count: 12 physical cores, 24 logical processors, using up to 24 threads

Optimize a model with 6112 rows, 3577 columns and 18067 nonzeros (Min)
Model fingerprint: 0x8ba74a64
Model has 1 linear objective coefficients
Variable types: 3501 continuous, 76 integer (76 binary)
Coefficient statistics:
  Matrix range     [2e-02, 1e+00]
  Objective range  [1e+00, 1e+00]
  Bounds range     [1e+00, 1e+04]
  RHS range        [1e+00, 2e+00]
Found heuristic solution: objective 75.8358076
Presolve removed 2271 rows and 553 columns
Presolve time: 0.01s
Presolved: 3841 rows, 3024 columns, 8984 nonzeros
Found heuristic solution: objective 55.7240525
Variable types: 2960 continuous, 64 integer (64 binary)

Root relaxation: objective 3.230065e+00, 1334 iterations, 0.01 seconds (0.03 work units)

    Nodes    |    Current Node    |     Objective Bounds      |     Work
 Expl Unexpl |  Obj  Depth IntInf | Incumbent    BestBd   Gap | It/Node Time

*    0     0               0       3.2300654    3.23007  0.00%     -    0s

Explored 1 nodes (1334 simplex iterations) in 0.05 seconds (0.05 work units)
Thread count was 24 (of 24 available processors)

Solution count 3: 3.23007 55.7241 75.8358 

Optimal solution found (tolerance 1.00e-04)
Best objective 3.230065405688e+00, best bound 3.230065405688e+00, gap 0.0000%

User-callback calls 40, time in user-callback 0.00 sec
  VI-only LB = 3.230065, x = [0, 0, 0, 0, 0, 0, 0, 0, 0, 0, 0, 0, 0, 0, 0, 0, 0, 0, 0, 0, 0, 0, 0, 0, 0, 0, 0, 0, 0, 0, 0, 0, 0, 0, 0, 0, 0, 0, 0, 0, 0, 0, 0, 0, 0, 0, 0, 0, 0, 0, 1, 1, 0, 0, 0, 0, 0, 0, 0, 0, 0, 0, 0, 0, 0, 0, 0, 0, 0, 0, 0, 0, 0, 0, 0, 0]
----------------------------------------

======================================================================
1. True-DRO Benders (bilinear subproblem via Gurobi NonConvex=2)
======================================================================
Set parameter Username
Set parameter LicenseID to value 2742039
Academic license - for non-commercial use only - expires 2026-11-20
Set parameter Username
Set parameter LicenseID to value 2742039
Academic license - for non-commercial use only - expires 2026-11-20
Set parameter DualReductions to value 0
Set parameter NonConvex to value 2
Set parameter LogFile to value "global_miqcp.log"
Set parameter Username
Set parameter LicenseID to value 2742039
Academic license - for non-commercial use only - expires 2026-11-20
Set parameter DualReductions to value 0
Set parameter NonConvex to value 2
Set parameter OptimalityTarget to value 1
Set parameter Username
Set parameter LicenseID to value 2742039
Academic license - for non-commercial use only - expires 2026-11-20
Set parameter Username
Set parameter LicenseID to value 2742039
Academic license - for non-commercial use only - expires 2026-11-20
Set parameter Username
Set parameter LicenseID to value 2742039
Academic license - for non-commercial use only - expires 2026-11-20

=== True-DRO Benders iter 1 ===
  OMP: t₀=3.230065, UB=Inf, gap=NaN, x=[0, 0, 0, 0, 0, 0, 0, 0, 0, 0, 0, 0, 0, 0, 0, 0, 0, 0, 0, 0, 0, 0, 0, 0, 0, 0, 0, 0, 0, 0, 0, 0, 0, 0, 0, 0, 0, 0, 0, 0, 0, 0, 0, 0, 0, 0, 0, 0, 0, 0, 1, 1, 0, 0, 0, 0, 0, 0, 0, 0, 0, 0, 0, 0, 0, 0, 0, 0, 0, 0, 0, 0, 0, 0, 0, 0] (0.044s)
Set parameter TimeLimit to value 30
Set parameter MIPGap to value 0.0001
Set parameter MIPFocus to value 0
Set parameter NonConvex to value 2
Set parameter MIPGap to value 0.0001
Set parameter DualReductions to value 0
Set parameter OptimalityTarget to value 1
Set parameter MIPFocus to value 0
Set parameter TimeLimit to value 30
Gurobi Optimizer version 13.0.0 build v13.0.0rc1 (win64 - Windows 10.0 (19045.2))

CPU model: AMD Ryzen 9 5900X 12-Core Processor, instruction set [SSE2|AVX|AVX2]
Thread count: 12 physical cores, 24 logical processors, using up to 24 threads

Non-default parameters:
TimeLimit  30
OptimalityTarget  1
DualReductions  0
NonConvex  2

Optimize a model with 8778 rows, 17605 columns and 42593 nonzeros (Max)
Model fingerprint: 0xf28c5871
Model has 3136 linear objective coefficients
Model has 3040 quadratic constraints
Coefficient statistics:
  Matrix range     [3e-01, 3e+01]
  QMatrix range    [1e+00, 1e+00]
  QLMatrix range   [1e+00, 1e+00]
  Objective range  [1e+00, 2e+00]
  Bounds range     [1e+00, 1e+01]
  RHS range        [5e-02, 2e+00]

Continuous model is non-convex -- solving with NL barrier

Presolve removed 3040 rows and 3040 columns
Presolve time: 0.02s
Presolved: 5738 rows, 14565 columns, 27393 nonzeros
Presolved model has 3040 quadratic constraint(s)
Ordering time: 0.01s

NL barrier statistics:
  Hessian NZ  : 3.040e+03
  Jacobian NZ : 4.259e+04
  Factor NZ   : 2.818e+05
  Factor Ops  : 6.918e+06
  Threads     : 1

                           Residuals
Iter     Objective      Primal     Dual      Compl     Step     Time
   0  -2.33434639e+04  1.16e+05  3.27e+03  7.77e+02  0.00e+00     0s
   1  -2.41552504e+04  8.88e+04  2.96e+03  7.13e+02  2.36e-01     0s
   2  -2.53822418e+04  5.57e+04  2.48e+03  6.33e+02  3.72e-01     0s
   3  -2.56713479e+04  4.93e+04  1.27e+03  2.85e+02  1.15e-01     0s
   4  -2.64794239e+04  3.13e+04  7.55e+02  1.61e+02  3.64e-01     0s
   5  -2.65460223e+04  1.70e+04  4.43e+02  9.21e+01  4.56e-01     0s
   6  -2.56327394e+04  1.10e+04  2.09e+02  4.04e+01  3.54e-01     0s
   7  -2.31146193e+04  6.50e+03  6.92e+01  1.26e+01  4.09e-01     0s
   8  -1.62687076e+04  1.85e+03  6.08e+00  1.82e+00  7.15e-01     0s
   9  -1.16280962e+04  4.05e+02  6.06e-01  1.18e+00  7.81e-01     0s
  10  -1.09907442e+04  2.11e+02  3.18e-01  1.09e+00  4.80e-01     0s
  11  -1.06273959e+04  1.09e+02  1.78e-01  1.06e+00  4.81e-01     0s
  12  -1.04665079e+04  6.72e+01  1.17e-01  1.04e+00  3.85e-01     0s
  13  -1.03916865e+04  4.74e+01  5.83e-02  1.01e+00  2.94e-01     0s
  14  -1.02300378e+04  3.04e-06  4.66e-04  1.00e+00  1.00e+00     0s
  15  -1.02273384e+04  4.08e-10  8.77e-07  1.00e+00  1.00e+00     0s
  16  -1.02272322e+04  3.44e-12  9.65e-09  1.00e+00  1.00e+00     0s
  17  -6.50468787e+03  4.29e-06  7.90e-03  4.56e-01  5.52e-01     0s
  18  -3.41224094e+03  2.34e-05  4.91e-02  3.37e-01  6.98e-01     0s
  19  -2.65261270e+03  1.81e-05  1.79e-02  2.41e-01  4.20e-01     0s
  20  -1.90609082e+03  2.38e-05  2.98e-02  1.64e-01  7.09e-01     0s
  21  -1.61189448e+03  2.35e-05  3.80e-03  1.50e-01  1.00e+00     0s
  22  -1.61431265e+03  5.23e-07  4.05e-05  1.50e-01  1.00e+00     0s
  23  -8.64295810e+02  5.28e-05  1.24e-02  8.73e-02  4.75e-01     0s
  24  -7.27638951e+02  5.65e-05  5.72e-02  5.34e-02  1.79e-01     0s
  25  -4.05677743e+02  1.71e-03  1.27e-01  4.04e-02  5.39e-01     0s
  26  -2.37165441e+02  6.44e-03  4.77e-01  3.10e-02  6.64e-01     0s
  27  -1.69368472e+02  1.22e-03  5.31e-02  2.25e-02  1.00e+00     0s
  28  -1.71584769e+02  2.16e-04  9.79e-04  2.25e-02  1.00e+00     0s
  29  -1.71628404e+02  7.69e-07  4.57e-06  2.25e-02  1.00e+00     0s
  30  -9.25622901e+01  1.76e-03  1.72e-01  1.52e-02  4.58e-01     0s
  31  -4.00978667e+01  1.48e-03  5.26e-02  6.57e-03  6.37e-01     0s
  32  -1.69252203e+01  4.98e-04  2.11e-02  3.38e-03  1.00e+00     0s
  33  -1.72606021e+01  5.26e-05  9.21e-04  3.38e-03  1.00e+00     0s
  34  -1.72469371e+01  1.75e-07  4.17e-06  3.38e-03  1.00e+00     0s
  35  -8.09445330e-01  1.33e-03  3.45e-02  1.46e-03  7.65e-01     0s
  36   5.38398511e+00  6.53e-03  9.11e-02  1.01e-03  1.00e+00     0s
  37   6.28529737e+00  4.08e-03  1.98e-02  6.50e-04  4.19e-01     0s
  38   6.36421963e+00  3.71e-03  5.76e-02  4.07e-04  8.95e-02     0s
  39   6.42127247e+00  2.37e-03  1.31e-02  3.49e-04  3.67e-01     0s
  40   6.46774859e+00  2.57e-05  1.91e-05  3.46e-04  1.00e+00     0s
  41   6.46686791e+00  1.24e-07  1.05e-06  3.46e-04  1.00e+00     0s
  42   6.46721111e+00  3.68e-10  2.44e-08  3.46e-04  1.00e+00     0s
  43   6.98859112e+00  9.33e-06  1.13e-02  1.33e-04  2.20e-01     0s
  44   7.47308914e+00  3.74e-05  2.02e-02  8.98e-05  2.43e-01     0s
  45   7.68126041e+00  3.21e-05  1.92e-02  6.39e-05  1.39e-01     0s
  46   7.93708760e+00  2.60e-05  1.20e-02  4.34e-05  1.92e-01     0s
  47   8.13426303e+00  2.11e-05  2.16e-02  3.77e-05  1.88e-01     0s
  48   8.29437303e+00  1.67e-05  4.35e-03  3.18e-05  2.08e-01     0s
  49   8.58802226e+00  5.00e-05  5.10e-03  2.40e-05  4.42e-01     0s
  50   8.79116512e+00  1.15e-05  2.64e-03  1.81e-05  6.11e-01     0s
  51   8.94035705e+00  3.55e-05  7.54e-03  1.42e-05  1.00e+00     0s
  52   8.93767054e+00  1.59e-06  9.06e-05  1.43e-05  1.00e+00     0s
  53   8.93836106e+00  1.72e-08  7.02e-07  1.43e-05  1.00e+00     0s
  54   8.93837181e+00  1.76e-11  4.18e-10  1.43e-05  1.00e+00     0s
  55   8.93837190e+00  2.66e-15  5.34e-14  1.43e-05  1.00e+00     1s
  56   9.00452661e+00  4.26e-06  3.39e-05  6.23e-06  5.71e-01     1s
  57   9.03142977e+00  3.61e-06  2.68e-03  1.47e-06  4.91e-01     1s
  58   9.04761547e+00  1.18e-06  9.65e-04  6.76e-07  6.80e-01     1s
  59   9.05716909e+00  3.59e-07  2.81e-07  1.65e-07  1.00e+00     1s
  60   9.05714875e+00  7.48e-09  3.17e-09  1.65e-07  1.00e+00     1s
  61   9.05714868e+00  4.78e-14  7.20e-13  1.65e-07  1.00e+00     1s
  62   9.05854207e+00  2.20e-09  4.95e-06  5.20e-09  9.92e-01     1s
  63   9.05855538e+00  5.63e-13  3.57e-12  1.00e-09  1.00e+00     1s

NL barrier solved model in 63 iterations and 0.58 seconds (0.78 work units)
First-order optimal solution
Solution objective 9.058555377912e+00

User-callback calls 177, time in user-callback 0.00 sec
  Sub: Z₀=9.058555 [LOCAL], α=[0.000,0.000,0.000,0.000,0.000,0.000,0.000,0.000,0.000,0.000,0.000,0.000,0.000,0.000,0.000,0.000,0.000,0.000,0.000,0.000,0.000,0.000,0.000,0.000,0.000,0.000,0.000,0.000,0.000,0.000,0.000,0.000,0.000,0.000,0.000,0.000,0.000,0.000,0.000,0.000,0.000,0.000,0.000,0.000,0.000,0.000,0.000,0.000,0.000,0.000,1.102,0.878,0.000,0.000,0.000,0.000,0.000,0.000,0.000,0.000,0.000,0.000,0.000,0.000,0.000,0.000,0.000,0.000,0.000,0.000,0.000,0.000,0.000,0.000,0.000,0.000]
  Iter 1: LB=3.230065  UB=Inf  gap=NaN
  Cut: intercept=-594.934911, π_x_range=[-417.4318, 303.1241]
  [ρ-diag] φ̂U=1.00, φ̃U=2.00, λU=2.00
    π_L range=[-135.6218, 93.1241], |π_L|_∞=135.6218
    π_F range=[-268.5528, 194.8994], |π_F|_∞=268.5528
    π_ψ range=[-13.3333, 17.1748], |π_ψ|_∞=17.1748
    ρ̂1: [0.0000, 8.4130], ρ̂3: [0.0000, 5.0000]
    ρ̃1: [0.0000, 6.7972], ρ̃3: [0.0000, 4.9686]
    ρ⁰1: [0.0000, 6.6667], ρ⁰3: [0.0000, 8.5874]
  [φ-diag] φ̂ actual: [-0.0000, 1.0000], φ̂U=1.00
  [φ-diag] φ̃ actual: [-0.0000, 2.0000], φ̃U=2.00
  Mini-Benders[1] (mw): LB=5.121018, Z₀(α*)=13.004837, intercept=18.484367
  Mini-Benders[2] (mw): LB=6.608270, Z₀(α*)=13.617475, intercept=16.220828
  Mini-Benders[3] (mw): LB=6.766660, Z₀(α*)=14.142108, intercept=18.405995
  Mini-Benders[4] (mw): LB=7.139828, Z₀(α*)=14.141955, intercept=18.517668
  Mini-Benders[5] (mw): LB=7.206089, Z₀(α*)=17.065914, intercept=21.654721
Set parameter NonConvex to value 2
Set parameter DualReductions to value 0
Set parameter LogFile to value "global_miqcp.log"
Gurobi Optimizer version 13.0.0 build v13.0.0rc1 (win64 - Windows 10.0 (19045.2))

CPU model: AMD Ryzen 9 5900X 12-Core Processor, instruction set [SSE2|AVX|AVX2]
Thread count: 12 physical cores, 24 logical processors, using up to 24 threads

Non-default parameters:
DualReductions  0
NonConvex  2

Optimize a model with 8778 rows, 17605 columns and 42593 nonzeros (Max)
Model fingerprint: 0x10d35a1c
Model has 3136 linear objective coefficients
Model has 3040 quadratic constraints
Coefficient statistics:
  Matrix range     [3e-01, 3e+01]
  QMatrix range    [1e+00, 1e+00]
  QLMatrix range   [1e+00, 1e+00]
  Objective range  [1e+00, 2e+00]
  Bounds range     [1e-02, 2e+00]
  RHS range        [5e-02, 2e+00]
Presolve removed 102 rows and 1408 columns
Presolve time: 0.02s
Presolved: 10348 rows, 16197 columns, 38649 nonzeros
Ordering time: 0.03s

Barrier statistics:
 Free vars  : 440
 AA' NZ     : 4.655e+04
 Factor NZ  : 3.211e+05 (roughly 13 MB of memory)
 Factor Ops : 2.450e+07 (less than 1 second per iteration)
 Threads    : 12

                  Objective                Residual
Iter       Primal          Dual         Primal    Dual     Compl     Time
   0  -7.77731351e+04 -0.00000000e+00  8.66e+03 1.00e+00  9.40e+01     0s
   1  -8.98585423e+04  1.07701996e+03  2.58e+03 5.80e+00  5.65e+01     0s
   2  -8.24293332e+04  1.45417930e+03  6.40e+02 1.37e+00  1.51e+01     0s
   3  -4.18980268e+04  1.09106949e+03  1.99e+01 2.86e-01  3.42e+00     0s
   4  -8.93016961e+03  8.40132340e+02  1.66e+00 8.71e-02  7.64e-01     0s
   5  -2.65240061e+03  5.07168641e+02  4.58e-01 1.91e-02  2.09e-01     0s
   6  -6.69011015e+02  2.83790626e+02  1.18e-01 4.52e-03  5.90e-02     0s
   7  -1.89975108e+02  1.28668956e+02  3.55e-02 1.36e-03  1.92e-02     0s
   8  -5.64245514e+01  7.37981510e+01  1.16e-02 6.14e-04  8.32e-03     0s
   9  -4.13212072e+00  5.28038597e+01  3.05e-03 3.59e-04  4.17e-03     0s
  10   1.53837122e+01  2.41377947e+01  5.56e-04 3.99e-05  5.68e-04     0s
  11   1.96670737e+01  2.01905161e+01  1.67e-05 5.05e-07  2.60e-05     0s
  12   2.00055281e+01  2.00105970e+01  1.09e-07 2.54e-09  2.29e-07     0s
  13   2.00092846e+01  2.00092959e+01  1.48e-07 3.07e-11  6.71e-10     0s
  14   2.00092945e+01  2.00092945e+01  2.74e-10 1.28e-13  8.10e-16     0s

Barrier solved model in 14 iterations and 0.09 seconds (0.10 work units)
Optimal objective 2.00092945e+01


User-callback calls 57, time in user-callback 0.00 sec
  α-step: Z₀=20.009294, α=[0.000,0.000,0.000,0.000,0.000,0.000,0.000,0.000,0.000,0.000,0.000,0.000,0.000,0.000,0.000,0.000,0.000,0.000,0.000,0.000,0.000,0.000,0.000,0.000,0.000,0.000,0.000,0.000,0.000,0.000,0.000,0.000,0.000,0.000,0.000,0.000,0.000,0.000,0.000,0.000,0.000,0.000,0.000,0.000,0.000,0.000,0.000,0.000,0.000,0.000,0.253,1.728,0.000,0.000,0.000,0.000,0.000,0.000,0.000,0.000,0.000,0.000,0.000,0.000,0.000,0.000,0.000,0.000,0.000,0.000,0.000,0.000,0.000,0.000,0.000,0.000]
  Alt-Benders[1] (mw): LB=8.351084, Z₀(α*)=20.042446, intercept=22.079855
  Alt-Benders[2] (mw): LB=9.058555, Z₀(α*)=9.058564, intercept=18.405999
  Alt-Benders[3] (mw): LB=9.058563, Z₀(α*)=9.058564, intercept=18.405999
  Alt-Benders[4] (mw): LB=9.058563, Z₀(α*)=9.058564, intercept=18.405999
  Alt-Benders[5] (mw): LB=9.058563, Z₀(α*)=9.058564, intercept=18.405999
  OMP re-solve: 0.308s

=== True-DRO Benders iter 2 ===
  OMP: t₀=9.058563, UB=Inf, gap=NaN, x=[0, 0, 0, 0, 0, 0, 0, 0, 0, 0, 0, 0, 0, 0, 0, 0, 0, 0, 0, 0, 0, 0, 0, 0, 0, 0, 0, 0, 0, 0, 0, 0, 0, 0, 0, 0, 0, 0, 0, 0, 0, 0, 0, 0, 0, 0, 0, 0, 0, 0, 1, 1, 0, 0, 0, 0, 0, 0, 0, 0, 0, 0, 0, 0, 0, 0, 0, 0, 0, 0, 0, 0, 0, 0, 0, 0] (0.001s)
Set parameter TimeLimit to value 30
Set parameter MIPGap to value 0.0001
Set parameter MIPFocus to value 0
Gurobi Optimizer version 13.0.0 build v13.0.0rc1 (win64 - Windows 10.0 (19045.2))

CPU model: AMD Ryzen 9 5900X 12-Core Processor, instruction set [SSE2|AVX|AVX2]
Thread count: 12 physical cores, 24 logical processors, using up to 24 threads

Non-default parameters:
TimeLimit  30
OptimalityTarget  1
DualReductions  0
NonConvex  2

Optimize a model with 8778 rows, 17605 columns and 42593 nonzeros (Max)
Model fingerprint: 0xf28c5871
Model has 3136 linear objective coefficients
Model has 3040 quadratic constraints
Variable types: 17605 continuous, 0 integer (0 binary)
Coefficient statistics:
  Matrix range     [3e-01, 3e+01]
  QMatrix range    [1e+00, 1e+00]
  QLMatrix range   [1e+00, 1e+00]
  Objective range  [1e+00, 2e+00]
  Bounds range     [1e+00, 1e+01]
  RHS range        [5e-02, 2e+00]
Presolve removed 3040 rows and 3040 columns
Presolve time: 0.03s
Presolved: 5738 rows, 14565 columns, 27393 nonzeros
Presolved model has 3040 quadratic constraint(s)

Solving NLP to local optimality

Ordering time: 0.02s

NL barrier statistics:
  Hessian NZ  : 3.040e+03
  Jacobian NZ : 4.259e+04
  Factor NZ   : 2.818e+05
  Factor Ops  : 6.918e+06
  Threads     : 1

                           Residuals
Iter     Objective      Primal     Dual      Compl     Step     Time
   0  -2.33434639e+04  1.16e+05  3.27e+03  7.77e+02  0.00e+00     0s
   1  -2.41552504e+04  8.88e+04  2.96e+03  7.13e+02  2.36e-01     0s
   2  -2.53822418e+04  5.57e+04  2.48e+03  6.33e+02  3.72e-01     0s
   3  -2.56713479e+04  4.93e+04  1.27e+03  2.85e+02  1.15e-01     0s
   4  -2.64794239e+04  3.13e+04  7.55e+02  1.61e+02  3.64e-01     0s
   5  -2.65460223e+04  1.70e+04  4.43e+02  9.21e+01  4.56e-01     0s
   6  -2.56327394e+04  1.10e+04  2.09e+02  4.04e+01  3.54e-01     0s
   7  -2.31146193e+04  6.50e+03  6.92e+01  1.26e+01  4.09e-01     0s
   8  -1.62687076e+04  1.85e+03  6.08e+00  1.82e+00  7.15e-01     0s
   9  -1.16280962e+04  4.05e+02  6.06e-01  1.18e+00  7.81e-01     0s
  10  -1.09907442e+04  2.11e+02  3.18e-01  1.09e+00  4.80e-01     0s
  11  -1.06273959e+04  1.09e+02  1.78e-01  1.06e+00  4.81e-01     0s
  12  -1.04665079e+04  6.72e+01  1.17e-01  1.04e+00  3.85e-01     0s
  13  -1.03916865e+04  4.74e+01  5.83e-02  1.01e+00  2.94e-01     0s
  14  -1.02300378e+04  3.04e-06  4.66e-04  1.00e+00  1.00e+00     0s
  15  -1.02273384e+04  4.08e-10  8.77e-07  1.00e+00  1.00e+00     0s
  16  -1.02272322e+04  3.44e-12  9.65e-09  1.00e+00  1.00e+00     0s
  17  -6.50468787e+03  4.29e-06  7.90e-03  4.56e-01  5.52e-01     0s
  18  -3.41224094e+03  2.34e-05  4.91e-02  3.37e-01  6.98e-01     0s
  19  -2.65261270e+03  1.81e-05  1.79e-02  2.41e-01  4.20e-01     0s
  20  -1.90609082e+03  2.38e-05  2.98e-02  1.64e-01  7.09e-01     0s
  21  -1.61189448e+03  2.35e-05  3.80e-03  1.50e-01  1.00e+00     0s
  22  -1.61431265e+03  5.23e-07  4.05e-05  1.50e-01  1.00e+00     0s
  23  -8.64295810e+02  5.28e-05  1.24e-02  8.73e-02  4.75e-01     0s
  24  -7.27638951e+02  5.65e-05  5.72e-02  5.34e-02  1.79e-01     0s
  25  -4.05677743e+02  1.71e-03  1.27e-01  4.04e-02  5.39e-01     0s
  26  -2.37165441e+02  6.44e-03  4.77e-01  3.10e-02  6.64e-01     0s
  27  -1.69368472e+02  1.22e-03  5.31e-02  2.25e-02  1.00e+00     0s
  28  -1.71584769e+02  2.16e-04  9.79e-04  2.25e-02  1.00e+00     0s
  29  -1.71628404e+02  7.69e-07  4.57e-06  2.25e-02  1.00e+00     0s
  30  -9.25622901e+01  1.76e-03  1.72e-01  1.52e-02  4.58e-01     0s
  31  -4.00978667e+01  1.48e-03  5.26e-02  6.57e-03  6.37e-01     0s
  32  -1.69252203e+01  4.98e-04  2.11e-02  3.38e-03  1.00e+00     0s
  33  -1.72606021e+01  5.26e-05  9.21e-04  3.38e-03  1.00e+00     0s
  34  -1.72469371e+01  1.75e-07  4.17e-06  3.38e-03  1.00e+00     0s
  35  -8.09445330e-01  1.33e-03  3.45e-02  1.46e-03  7.65e-01     0s
  36   5.38398511e+00  6.53e-03  9.11e-02  1.01e-03  1.00e+00     0s
  37   6.28529737e+00  4.08e-03  1.98e-02  6.50e-04  4.19e-01     0s
  38   6.36421963e+00  3.71e-03  5.76e-02  4.07e-04  8.95e-02     0s
  39   6.42127247e+00  2.37e-03  1.31e-02  3.49e-04  3.67e-01     0s
  40   6.46774859e+00  2.57e-05  1.91e-05  3.46e-04  1.00e+00     0s
  41   6.46686791e+00  1.24e-07  1.05e-06  3.46e-04  1.00e+00     0s
  42   6.46721111e+00  3.68e-10  2.44e-08  3.46e-04  1.00e+00     0s
  43   6.98859112e+00  9.33e-06  1.13e-02  1.33e-04  2.20e-01     0s
  44   7.47308914e+00  3.74e-05  2.02e-02  8.98e-05  2.43e-01     0s
  45   7.68126041e+00  3.21e-05  1.92e-02  6.39e-05  1.39e-01     0s
  46   7.93708760e+00  2.60e-05  1.20e-02  4.34e-05  1.92e-01     0s
  47   8.13426303e+00  2.11e-05  2.16e-02  3.77e-05  1.88e-01     0s
  48   8.29437303e+00  1.67e-05  4.35e-03  3.18e-05  2.08e-01     0s
  49   8.58802226e+00  5.00e-05  5.10e-03  2.40e-05  4.42e-01     0s
  50   8.79116512e+00  1.15e-05  2.64e-03  1.81e-05  6.11e-01     0s
  51   8.94035705e+00  3.55e-05  7.54e-03  1.42e-05  1.00e+00     0s
  52   8.93767054e+00  1.59e-06  9.06e-05  1.43e-05  1.00e+00     0s
  53   8.93836106e+00  1.72e-08  7.02e-07  1.43e-05  1.00e+00     0s
  54   8.93837181e+00  1.76e-11  4.18e-10  1.43e-05  1.00e+00     1s
  55   8.93837190e+00  2.66e-15  5.34e-14  1.43e-05  1.00e+00     1s
  56   9.00452661e+00  4.26e-06  3.39e-05  6.23e-06  5.71e-01     1s
  57   9.03142977e+00  3.61e-06  2.68e-03  1.47e-06  4.91e-01     1s
  58   9.04761547e+00  1.18e-06  9.65e-04  6.76e-07  6.80e-01     1s
  59   9.05716909e+00  3.59e-07  2.81e-07  1.65e-07  1.00e+00     1s
  60   9.05714875e+00  7.48e-09  3.17e-09  1.65e-07  1.00e+00     1s
  61   9.05714868e+00  4.78e-14  7.20e-13  1.65e-07  1.00e+00     1s
  62   9.05854207e+00  2.20e-09  4.95e-06  5.20e-09  9.92e-01     1s
  63   9.05855538e+00  5.63e-13  3.57e-12  1.00e-09  1.00e+00     1s

NL barrier solved model in 63 iterations and 0.59 seconds (0.77 work units)
First-order optimal solution
Solution objective 9.058555377912e+00

User-callback calls 185, time in user-callback 0.00 sec
  Sub: Z₀=9.058555 [LOCAL], α=[0.000,0.000,0.000,0.000,0.000,0.000,0.000,0.000,0.000,0.000,0.000,0.000,0.000,0.000,0.000,0.000,0.000,0.000,0.000,0.000,0.000,0.000,0.000,0.000,0.000,0.000,0.000,0.000,0.000,0.000,0.000,0.000,0.000,0.000,0.000,0.000,0.000,0.000,0.000,0.000,0.000,0.000,0.000,0.000,0.000,0.000,0.000,0.000,0.000,0.000,1.102,0.878,0.000,0.000,0.000,0.000,0.000,0.000,0.000,0.000,0.000,0.000,0.000,0.000,0.000,0.000,0.000,0.000,0.000,0.000,0.000,0.000,0.000,0.000,0.000,0.000]
  Iter 2: LB=9.058563  UB=Inf  gap=NaN
  Cut: intercept=-594.934911, π_x_range=[-417.4318, 303.1241]
  [ρ-diag] φ̂U=1.00, φ̃U=2.00, λU=2.00
    π_L range=[-135.6218, 93.1241], |π_L|_∞=135.6218
    π_F range=[-268.5528, 194.8994], |π_F|_∞=268.5528
    π_ψ range=[-13.3333, 17.1748], |π_ψ|_∞=17.1748
    ρ̂1: [0.0000, 8.4130], ρ̂3: [0.0000, 5.0000]
    ρ̃1: [0.0000, 6.7972], ρ̃3: [0.0000, 4.9686]
    ρ⁰1: [0.0000, 6.6667], ρ⁰3: [0.0000, 8.5874]
  [φ-diag] φ̂ actual: [0.0000, 1.0000], φ̂U=1.00
  [φ-diag] φ̃ actual: [-0.0000, 0.0000], φ̃U=2.00
  Mini-Benders[1] (mw): LB=9.058563, Z₀(α*)=9.058564, intercept=18.405995
  Mini-Benders[2] (mw): LB=9.058563, Z₀(α*)=9.058564, intercept=18.405995
  Mini-Benders[3]: LB stagnated, break
Gurobi Optimizer version 13.0.0 build v13.0.0rc1 (win64 - Windows 10.0 (19045.2))

CPU model: AMD Ryzen 9 5900X 12-Core Processor, instruction set [SSE2|AVX|AVX2]
Thread count: 12 physical cores, 24 logical processors, using up to 24 threads

Non-default parameters:
DualReductions  0
NonConvex  2

Optimize a model with 8778 rows, 17605 columns and 42593 nonzeros (Max)
Model fingerprint: 0x32d4e9bd
Model has 3136 linear objective coefficients
Model has 3040 quadratic constraints
Coefficient statistics:
  Matrix range     [3e-01, 3e+01]
  QMatrix range    [1e+00, 1e+00]
  QLMatrix range   [1e+00, 1e+00]
  Objective range  [1e+00, 2e+00]
  Bounds range     [1e-02, 2e+00]
  RHS range        [5e-02, 2e+00]
Presolve removed 102 rows and 1408 columns
Presolve time: 0.00s
Presolved: 10348 rows, 16197 columns, 38649 nonzeros
Ordering time: 0.03s

Barrier statistics:
 Free vars  : 440
 AA' NZ     : 4.655e+04
 Factor NZ  : 3.211e+05 (roughly 13 MB of memory)
 Factor Ops : 2.450e+07 (less than 1 second per iteration)
 Threads    : 12

                  Objective                Residual
Iter       Primal          Dual         Primal    Dual     Compl     Time
   0  -7.79089160e+04 -0.00000000e+00  8.67e+03 1.00e+00  9.40e+01     0s
   1  -9.01028717e+04  9.85202644e+02  2.56e+03 5.80e+00  5.64e+01     0s
   2  -8.25453303e+04  1.30081023e+03  6.28e+02 1.37e+00  1.51e+01     0s
   3  -3.84269969e+04  9.58325298e+02  1.91e+01 2.95e-01  3.29e+00     0s
   4  -6.51476932e+03  7.20975525e+02  1.60e+00 8.30e-02  6.41e-01     0s
   5  -1.69213303e+03  4.07053970e+02  4.14e-01 1.38e-02  1.36e-01     0s
   6  -4.19201921e+02  1.75653322e+02  1.13e-01 2.13e-03  3.21e-02     0s
   7  -1.36538434e+02  1.05555345e+02  3.69e-02 1.08e-03  1.41e-02     0s
   8  -3.35969917e+01  7.08974648e+01  9.51e-03 6.33e-04  6.84e-03     0s
   9  -2.35494101e+00  2.01841594e+01  1.98e-03 9.14e-05  1.33e-03     0s
  10   7.90890926e+00  9.53588922e+00  1.63e-04 2.06e-06  7.99e-05     0s
  11   9.05139747e+00  9.06397503e+00  1.07e-07 1.43e-08  6.12e-07     0s
  12   9.05855026e+00  9.05857205e+00  2.54e-08 1.20e-11  9.40e-10     0s
  13   9.05856396e+00  9.05856396e+00  2.45e-10 7.94e-15  1.39e-14     0s

Barrier solved model in 13 iterations and 0.10 seconds (0.10 work units)
Optimal objective 9.05856396e+00


User-callback calls 56, time in user-callback 0.00 sec
  α-step: Z₀=9.058564, α=[0.000,0.000,0.000,0.000,0.000,0.000,0.000,0.000,0.000,0.000,0.000,0.000,0.000,0.000,0.000,0.000,0.000,0.000,0.000,0.000,0.000,0.000,0.000,0.000,0.000,0.000,0.000,0.000,0.000,0.000,0.000,0.000,0.000,0.000,0.000,0.000,0.000,0.000,0.000,0.000,0.000,0.000,0.000,0.000,0.000,0.000,0.000,0.000,0.000,0.000,1.324,0.656,0.000,0.000,0.000,0.000,0.000,0.000,0.000,0.000,0.000,0.000,0.000,0.000,0.000,0.000,0.000,0.000,0.000,0.000,0.000,0.000,0.000,0.000,0.000,0.000]
  Alt-Benders[1] (mw): LB=9.058564, Z₀(α*)=9.058564, intercept=18.405995
  Alt-Benders[2] (mw): LB=9.058563, Z₀(α*)=9.058564, intercept=18.405995
  Alt-Benders[3] (mw): LB=9.058563, Z₀(α*)=9.058564, intercept=18.405995
  Alt-Benders[4]: LB stagnated, break
  OMP re-solve: 0.000s

=== True-DRO Benders iter 3 ===
  OMP: t₀=9.058563, UB=Inf, gap=NaN, x=[0, 0, 0, 0, 0, 0, 0, 0, 0, 0, 0, 0, 0, 0, 0, 0, 0, 0, 0, 0, 0, 0, 0, 0, 0, 0, 0, 0, 0, 0, 0, 0, 0, 0, 0, 0, 0, 0, 0, 0, 0, 0, 0, 0, 0, 0, 0, 0, 0, 0, 1, 1, 0, 0, 0, 0, 0, 0, 0, 0, 0, 0, 0, 0, 0, 0, 0, 0, 0, 0, 0, 0, 0, 0, 0, 0] (0.000s)
Set parameter TimeLimit to value 30
Set parameter MIPGap to value 0.0001
Set parameter MIPFocus to value 0
Gurobi Optimizer version 13.0.0 build v13.0.0rc1 (win64 - Windows 10.0 (19045.2))

CPU model: AMD Ryzen 9 5900X 12-Core Processor, instruction set [SSE2|AVX|AVX2]
Thread count: 12 physical cores, 24 logical processors, using up to 24 threads

Non-default parameters:
TimeLimit  30
DualReductions  0
NonConvex  2

Optimize a model with 8778 rows, 17605 columns and 42593 nonzeros (Max)
Model fingerprint: 0x3afd0d80
Model has 3136 linear objective coefficients
Model has 3040 quadratic constraints
Coefficient statistics:
  Matrix range     [3e-01, 3e+01]
  QMatrix range    [1e+00, 1e+00]
  QLMatrix range   [1e+00, 1e+00]
  Objective range  [1e+00, 2e+00]
  Bounds range     [1e+00, 2e+00]
  RHS range        [5e-02, 2e+00]

Continuous model is non-convex -- solving as a MIP

Presolve time: 0.02s
Presolved: 20938 rows, 17606 columns, 66913 nonzeros
Presolved model has 3040 bilinear constraint(s)
Variable types: 17606 continuous, 0 integer (0 binary)
Found heuristic solution: objective 9.0585564

Root relaxation: objective 1.211594e+01, 7269 iterations, 0.19 seconds (0.40 work units)

    Nodes    |    Current Node    |     Objective Bounds      |     Work
 Expl Unexpl |  Obj  Depth IntInf | Incumbent    BestBd   Gap | It/Node Time

     0     0   12.11594    0  110    9.05856   12.11594  33.8%     -    0s
     0     0          -    0         9.05856    9.05856  0.00%     -    0s

Cutting planes:
  RLT: 52

Explored 1 nodes (8083 simplex iterations) in 0.80 seconds (1.16 work units)
Thread count was 24 (of 24 available processors)

Solution count 1: 9.05856 

Optimal solution found (tolerance 1.00e-04)
Best objective 9.058556376793e+00, best bound 9.058563961750e+00, gap 0.0001%

User-callback calls 68, time in user-callback 0.00 sec
  Sub: Z₀=9.058556, α=[0.000,0.000,0.000,0.000,0.000,0.000,0.000,0.000,0.000,0.000,0.000,0.000,0.000,0.000,0.000,0.000,0.000,0.000,0.000,0.000,0.000,0.000,0.000,0.000,0.000,0.000,0.000,0.000,0.000,0.000,0.000,0.000,0.000,0.000,0.000,0.000,0.000,0.000,0.000,0.000,0.000,0.000,0.000,0.000,0.000,0.000,0.000,0.000,0.000,0.000,0.995,0.985,0.000,0.000,0.000,0.000,0.000,0.000,0.000,0.000,0.000,0.000,0.000,0.000,0.000,0.000,0.000,0.000,0.000,0.000,0.000,0.000,0.000,0.000,0.000,0.000]
  Iter 3: LB=9.058563  UB=9.058556  gap=7.20e-07
True-DRO Benders converged at iter 3 (gap=7.20e-07)
  Wall time: 14.17 sec
  OMP  time: mean=0.338s, median=0.307s, max=0.696s
  Sub  time (exact): mean=0.836s, median=0.836s, q90=0.836s, max=0.836s (n=1/3)

----------------------------------------
True-DRO: status=Optimal, Z₀=9.058556, iters=3, time=14.17s
  LB=9.058563, UB=9.058556, gap=7.20e-07
  x* = [0, 0, 0, 0, 0, 0, 0, 0, 0, 0, 0, 0, 0, 0, 0, 0, 0, 0, 0, 0, 0, 0, 0, 0, 0, 0, 0, 0, 0, 0, 0, 0, 0, 0, 0, 0, 0, 0, 0, 0, 0, 0, 0, 0, 0, 0, 0, 0, 0, 0, 1, 1, 0, 0, 0, 0, 0, 0, 0, 0, 0, 0, 0, 0, 0, 0, 0, 0, 0, 0, 0, 0, 0, 0, 0, 0]
  α* = [0.000, 0.000, 0.000, 0.000, 0.000, 0.000, 0.000, 0.000, 0.000, 0.000, 0.000, 0.000, 0.000, 0.000, 0.000, 0.000, 0.000, 0.000, 0.000, 0.000, 0.000, 0.000, 0.000, 0.000, 0.000, 0.000, 0.000, 0.000, 0.000, 0.000, 0.000, 0.000, 0.000, 0.000, 0.000, 0.000, 0.000, 0.000, 0.000, 0.000, 0.000, 0.000, 0.000, 0.000, 0.000, 0.000, 0.000, 0.000, 0.000, 0.000, 0.995, 0.985, 0.000, 0.000, 0.000, 0.000, 0.000, 0.000, 0.000, 0.000, 0.000, 0.000, 0.000, 0.000, 0.000, 0.000, 0.000, 0.000, 0.000, 0.000, 0.000, 0.000, 0.000, 0.000, 0.000, 0.000]
  Profile saved → C:\Users\user\robust_bilevel_network_games\true_dro\profiles.jls (34 entries)
============================================================
Primal Recovery: x* → α* → (h*, λ*, ψ⁰*)
============================================================
  x* = [0, 0, 0, 0, 0, 0, 0, 0, 0, 0, 0, 0, 0, 0, 0, 0, 0, 0, 0, 0, 0, 0, 0, 0, 0, 0, 0, 0, 0, 0, 0, 0, 0, 0, 0, 0, 0, 0, 0, 0, 0, 0, 0, 0, 0, 0, 0, 0, 0, 0, 1, 1, 0, 0, 0, 0, 0, 0, 0, 0, 0, 0, 0, 0, 0, 0, 0, 0, 0, 0, 0, 0, 0, 0, 0, 0]
  α* = [0.0000, 0.0000, 0.0000, 0.0000, 0.0000, 0.0000, 0.0000, 0.0000, 0.0000, 0.0000, 0.0000, 0.0000, 0.0000, 0.0000, 0.0000, 0.0000, 0.0000, 0.0000, 0.0000, 0.0000, 0.0000, 0.0000, 0.0000, 0.0000, 0.0000, 0.0000, 0.0000, 0.0000, 0.0000, 0.0000, 0.0000, 0.0000, 0.0000, 0.0000, 0.0000, 0.0000, 0.0000, 0.0000, 0.0000, 0.0000, 0.0000, 0.0000, 0.0000, 0.0000, 0.0000, 0.0000, 0.0000, 0.0000, 0.0000, 0.0000, 0.9950, 0.9855, 0.0000, 0.0000, 0.0000, 0.0000, 0.0000, 0.0000, 0.0000, 0.0000, 0.0000, 0.0000, 0.0000, 0.0000, 0.0000, 0.0000, 0.0000, 0.0000, 0.0000, 0.0000, 0.0000, 0.0000, 0.0000, 0.0000, 0.0000, 0.0000]

  Piece-F obj = 0.000000
  λ*   = -0.000000
  Σh*  = 0.000000  (budget: λw = -0.000000)

  h* (nonzero arcs):
  ψ⁰* (nonzero arcs):

  Per-scenario sink flow ỹ_ts:
    s=1: ỹ_ts=-0.000000
    s=2: ỹ_ts=-0.000000
    s=3: ỹ_ts=-0.000000
    s=4: ỹ_ts=-0.000000
    s=5: ỹ_ts=-0.000000
    s=6: ỹ_ts=-0.000000
    s=7: ỹ_ts=-0.000000
    s=8: ỹ_ts=-0.000000
    s=9: ỹ_ts=-0.000000
    s=10: ỹ_ts=-0.000000
    s=11: ỹ_ts=-0.000000
    s=12: ỹ_ts=-0.000000
    s=13: ỹ_ts=-0.000000
    s=14: ỹ_ts=-0.000000
    s=15: ỹ_ts=-0.000000
    s=16: ỹ_ts=-0.000000
    s=17: ỹ_ts=-0.000000
    s=18: ỹ_ts=-0.000000
    s=19: ỹ_ts=-0.000000
    s=20: ỹ_ts=-0.000000

  Z₀(Benders) = 9.058556
  Piece-F(recovered) = 0.000000

Finished: 2026-04-17T14:35:59.829
